-46.0 8.0 3.0 4.0 1.0 8.0 2.0 8.0 6.0 6.0 
8.0 -57.0 3.0 4.0 3.0 7.0 7.0 10.0 5.0 10.0 
3.0 3.0 -30.0 8.0 1.0 0.0 2.0 0.0 6.0 7.0 
4.0 4.0 8.0 -49.0 8.0 2.0 1.0 10.0 6.0 6.0 
1.0 3.0 1.0 8.0 -41.0 5.0 10.0 5.0 8.0 0.0 
8.0 7.0 0.0 2.0 5.0 -40.0 4.0 0.0 9.0 5.0 
2.0 7.0 2.0 1.0 10.0 4.0 -38.0 6.0 3.0 3.0 
8.0 10.0 0.0 10.0 5.0 0.0 6.0 -57.0 10.0 8.0 
6.0 5.0 6.0 6.0 8.0 9.0 3.0 10.0 -62.0 9.0 
6.0 10.0 7.0 6.0 0.0 5.0 3.0 8.0 9.0 -54.0 

